Minimize
 obj: 0 X_0_1
Subject To
 out_0:
  + 1 X_0_1 + 1 X_0_2 + 1 X_0_3 + 1 X_0_4 + 1 X_0_5 + 1 X_0_6 + 1 X_0_7 + 1 X_0_8
  + 1 X_0_9
  = 1
 in_0:
  + 1 X_1_0 + 1 X_2_0 + 1 X_3_0 + 1 X_4_0 + 1 X_5_0 + 1 X_6_0 + 1 X_7_0 + 1 X_8_0
  + 1 X_9_0
  = 1
 out_1:
  + 1 X_1_0 + 1 X_1_2 + 1 X_1_3 + 1 X_1_4 + 1 X_1_5 + 1 X_1_6 + 1 X_1_7 + 1 X_1_8
  + 1 X_1_9
  = 1
 in_1:
  + 1 X_0_1 + 1 X_2_1 + 1 X_3_1 + 1 X_4_1 + 1 X_5_1 + 1 X_6_1 + 1 X_7_1 + 1 X_8_1
  + 1 X_9_1
  = 1
 out_2:
  + 1 X_2_0 + 1 X_2_1 + 1 X_2_3 + 1 X_2_4 + 1 X_2_5 + 1 X_2_6 + 1 X_2_7 + 1 X_2_8
  + 1 X_2_9
  = 1
 in_2:
  + 1 X_0_2 + 1 X_1_2 + 1 X_3_2 + 1 X_4_2 + 1 X_5_2 + 1 X_6_2 + 1 X_7_2 + 1 X_8_2
  + 1 X_9_2
  = 1
 out_3:
  + 1 X_3_0 + 1 X_3_1 + 1 X_3_2 + 1 X_3_4 + 1 X_3_5 + 1 X_3_6 + 1 X_3_7 + 1 X_3_8
  + 1 X_3_9
  = 1
 in_3:
  + 1 X_0_3 + 1 X_1_3 + 1 X_2_3 + 1 X_4_3 + 1 X_5_3 + 1 X_6_3 + 1 X_7_3 + 1 X_8_3
  + 1 X_9_3
  = 1
 out_4:
  + 1 X_4_0 + 1 X_4_1 + 1 X_4_2 + 1 X_4_3 + 1 X_4_5 + 1 X_4_6 + 1 X_4_7 + 1 X_4_8
  + 1 X_4_9
  = 1
 in_4:
  + 1 X_0_4 + 1 X_1_4 + 1 X_2_4 + 1 X_3_4 + 1 X_5_4 + 1 X_6_4 + 1 X_7_4 + 1 X_8_4
  + 1 X_9_4
  = 1
 out_5:
  + 1 X_5_0 + 1 X_5_1 + 1 X_5_2 + 1 X_5_3 + 1 X_5_4 + 1 X_5_6 + 1 X_5_7 + 1 X_5_8
  + 1 X_5_9
  = 1
 in_5:
  + 1 X_0_5 + 1 X_1_5 + 1 X_2_5 + 1 X_3_5 + 1 X_4_5 + 1 X_6_5 + 1 X_7_5 + 1 X_8_5
  + 1 X_9_5
  = 1
 out_6:
  + 1 X_6_0 + 1 X_6_1 + 1 X_6_2 + 1 X_6_3 + 1 X_6_4 + 1 X_6_5 + 1 X_6_7 + 1 X_6_8
  + 1 X_6_9
  = 1
 in_6:
  + 1 X_0_6 + 1 X_1_6 + 1 X_2_6 + 1 X_3_6 + 1 X_4_6 + 1 X_5_6 + 1 X_7_6 + 1 X_8_6
  + 1 X_9_6
  = 1
 out_7:
  + 1 X_7_0 + 1 X_7_1 + 1 X_7_2 + 1 X_7_3 + 1 X_7_4 + 1 X_7_5 + 1 X_7_6 + 1 X_7_8
  + 1 X_7_9
  = 1
 in_7:
  + 1 X_0_7 + 1 X_1_7 + 1 X_2_7 + 1 X_3_7 + 1 X_4_7 + 1 X_5_7 + 1 X_6_7 + 1 X_8_7
  + 1 X_9_7
  = 1
 out_8:
  + 1 X_8_0 + 1 X_8_1 + 1 X_8_2 + 1 X_8_3 + 1 X_8_4 + 1 X_8_5 + 1 X_8_6 + 1 X_8_7
  + 1 X_8_9
  = 1
 in_8:
  + 1 X_0_8 + 1 X_1_8 + 1 X_2_8 + 1 X_3_8 + 1 X_4_8 + 1 X_5_8 + 1 X_6_8 + 1 X_7_8
  + 1 X_9_8
  = 1
 out_9:
  + 1 X_9_0 + 1 X_9_1 + 1 X_9_2 + 1 X_9_3 + 1 X_9_4 + 1 X_9_5 + 1 X_9_6 + 1 X_9_7
  + 1 X_9_8
  = 1
 in_9:
  + 1 X_0_9 + 1 X_1_9 + 1 X_2_9 + 1 X_3_9 + 1 X_4_9 + 1 X_5_9 + 1 X_6_9 + 1 X_7_9
  + 1 X_8_9
  = 1
 mtz_1_2:
  + 1 U1 - 1 U2 + 9 X_1_2
  <= 8
 mtz_1_3:
  + 1 U1 - 1 U3 + 9 X_1_3
  <= 8
 mtz_1_4:
  + 1 U1 - 1 U4 + 9 X_1_4
  <= 8
 mtz_1_5:
  + 1 U1 - 1 U5 + 9 X_1_5
  <= 8
 mtz_1_6:
  + 1 U1 - 1 U6 + 9 X_1_6
  <= 8
 mtz_1_7:
  + 1 U1 - 1 U7 + 9 X_1_7
  <= 8
 mtz_1_8:
  + 1 U1 - 1 U8 + 9 X_1_8
  <= 8
 mtz_1_9:
  + 1 U1 - 1 U9 + 9 X_1_9
  <= 8
 mtz_2_1:
  + 1 U2 - 1 U1 + 9 X_2_1
  <= 8
 mtz_2_3:
  + 1 U2 - 1 U3 + 9 X_2_3
  <= 8
 mtz_2_4:
  + 1 U2 - 1 U4 + 9 X_2_4
  <= 8
 mtz_2_5:
  + 1 U2 - 1 U5 + 9 X_2_5
  <= 8
 mtz_2_6:
  + 1 U2 - 1 U6 + 9 X_2_6
  <= 8
 mtz_2_7:
  + 1 U2 - 1 U7 + 9 X_2_7
  <= 8
 mtz_2_8:
  + 1 U2 - 1 U8 + 9 X_2_8
  <= 8
 mtz_2_9:
  + 1 U2 - 1 U9 + 9 X_2_9
  <= 8
 mtz_3_1:
  + 1 U3 - 1 U1 + 9 X_3_1
  <= 8
 mtz_3_2:
  + 1 U3 - 1 U2 + 9 X_3_2
  <= 8
 mtz_3_4:
  + 1 U3 - 1 U4 + 9 X_3_4
  <= 8
 mtz_3_5:
  + 1 U3 - 1 U5 + 9 X_3_5
  <= 8
 mtz_3_6:
  + 1 U3 - 1 U6 + 9 X_3_6
  <= 8
 mtz_3_7:
  + 1 U3 - 1 U7 + 9 X_3_7
  <= 8
 mtz_3_8:
  + 1 U3 - 1 U8 + 9 X_3_8
  <= 8
 mtz_3_9:
  + 1 U3 - 1 U9 + 9 X_3_9
  <= 8
 mtz_4_1:
  + 1 U4 - 1 U1 + 9 X_4_1
  <= 8
 mtz_4_2:
  + 1 U4 - 1 U2 + 9 X_4_2
  <= 8
 mtz_4_3:
  + 1 U4 - 1 U3 + 9 X_4_3
  <= 8
 mtz_4_5:
  + 1 U4 - 1 U5 + 9 X_4_5
  <= 8
 mtz_4_6:
  + 1 U4 - 1 U6 + 9 X_4_6
  <= 8
 mtz_4_7:
  + 1 U4 - 1 U7 + 9 X_4_7
  <= 8
 mtz_4_8:
  + 1 U4 - 1 U8 + 9 X_4_8
  <= 8
 mtz_4_9:
  + 1 U4 - 1 U9 + 9 X_4_9
  <= 8
 mtz_5_1:
  + 1 U5 - 1 U1 + 9 X_5_1
  <= 8
 mtz_5_2:
  + 1 U5 - 1 U2 + 9 X_5_2
  <= 8
 mtz_5_3:
  + 1 U5 - 1 U3 + 9 X_5_3
  <= 8
 mtz_5_4:
  + 1 U5 - 1 U4 + 9 X_5_4
  <= 8
 mtz_5_6:
  + 1 U5 - 1 U6 + 9 X_5_6
  <= 8
 mtz_5_7:
  + 1 U5 - 1 U7 + 9 X_5_7
  <= 8
 mtz_5_8:
  + 1 U5 - 1 U8 + 9 X_5_8
  <= 8
 mtz_5_9:
  + 1 U5 - 1 U9 + 9 X_5_9
  <= 8
 mtz_6_1:
  + 1 U6 - 1 U1 + 9 X_6_1
  <= 8
 mtz_6_2:
  + 1 U6 - 1 U2 + 9 X_6_2
  <= 8
 mtz_6_3:
  + 1 U6 - 1 U3 + 9 X_6_3
  <= 8
 mtz_6_4:
  + 1 U6 - 1 U4 + 9 X_6_4
  <= 8
 mtz_6_5:
  + 1 U6 - 1 U5 + 9 X_6_5
  <= 8
 mtz_6_7:
  + 1 U6 - 1 U7 + 9 X_6_7
  <= 8
 mtz_6_8:
  + 1 U6 - 1 U8 + 9 X_6_8
  <= 8
 mtz_6_9:
  + 1 U6 - 1 U9 + 9 X_6_9
  <= 8
 mtz_7_1:
  + 1 U7 - 1 U1 + 9 X_7_1
  <= 8
 mtz_7_2:
  + 1 U7 - 1 U2 + 9 X_7_2
  <= 8
 mtz_7_3:
  + 1 U7 - 1 U3 + 9 X_7_3
  <= 8
 mtz_7_4:
  + 1 U7 - 1 U4 + 9 X_7_4
  <= 8
 mtz_7_5:
  + 1 U7 - 1 U5 + 9 X_7_5
  <= 8
 mtz_7_6:
  + 1 U7 - 1 U6 + 9 X_7_6
  <= 8
 mtz_7_8:
  + 1 U7 - 1 U8 + 9 X_7_8
  <= 8
 mtz_7_9:
  + 1 U7 - 1 U9 + 9 X_7_9
  <= 8
 mtz_8_1:
  + 1 U8 - 1 U1 + 9 X_8_1
  <= 8
 mtz_8_2:
  + 1 U8 - 1 U2 + 9 X_8_2
  <= 8
 mtz_8_3:
  + 1 U8 - 1 U3 + 9 X_8_3
  <= 8
 mtz_8_4:
  + 1 U8 - 1 U4 + 9 X_8_4
  <= 8
 mtz_8_5:
  + 1 U8 - 1 U5 + 9 X_8_5
  <= 8
 mtz_8_6:
  + 1 U8 - 1 U6 + 9 X_8_6
  <= 8
 mtz_8_7:
  + 1 U8 - 1 U7 + 9 X_8_7
  <= 8
 mtz_8_9:
  + 1 U8 - 1 U9 + 9 X_8_9
  <= 8
 mtz_9_1:
  + 1 U9 - 1 U1 + 9 X_9_1
  <= 8
 mtz_9_2:
  + 1 U9 - 1 U2 + 9 X_9_2
  <= 8
 mtz_9_3:
  + 1 U9 - 1 U3 + 9 X_9_3
  <= 8
 mtz_9_4:
  + 1 U9 - 1 U4 + 9 X_9_4
  <= 8
 mtz_9_5:
  + 1 U9 - 1 U5 + 9 X_9_5
  <= 8
 mtz_9_6:
  + 1 U9 - 1 U6 + 9 X_9_6
  <= 8
 mtz_9_7:
  + 1 U9 - 1 U7 + 9 X_9_7
  <= 8
 mtz_9_8:
  + 1 U9 - 1 U8 + 9 X_9_8
  <= 8
 obj1:
  + 438 X_0_1 + 641 X_0_2 + 668 X_0_3 + 254 X_0_4 + 447 X_0_5 + 454 X_0_6 + 604 X_0_7 + 437 X_0_8
  + 99 X_0_9 + 438 X_1_0 + 1073 X_1_2 + 1106 X_1_3 + 687 X_1_4 + 535 X_1_5 + 855 X_1_6 + 1030 X_1_7
  + 650 X_1_8 + 423 X_1_9 + 641 X_2_0 + 1073 X_2_1 + 147 X_2_3 + 387 X_2_4 + 800 X_2_5 + 463 X_2_6
  + 332 X_2_7 + 650 X_2_8 + 653 X_2_9 + 668 X_3_0 + 1106 X_3_1 + 147 X_3_2 + 427 X_3_4 + 898 X_3_5
  + 382 X_3_6 + 208 X_3_7 + 759 X_3_8 + 700 X_3_9 + 254 X_4_0 + 687 X_4_1 + 387 X_4_2 + 427 X_4_3
  + 516 X_4_5 + 344 X_4_6 + 415 X_4_7 + 419 X_4_8 + 273 X_4_9 + 447 X_5_0 + 535 X_5_1 + 800 X_5_2
  + 898 X_5_3 + 516 X_5_4 + 844 X_5_6 + 929 X_5_7 + 165 X_5_8 + 347 X_5_9 + 454 X_6_0 + 855 X_6_1
  + 463 X_6_2 + 382 X_6_3 + 344 X_6_4 + 844 X_6_5 + 205 X_6_7 + 762 X_6_8 + 533 X_6_9 + 604 X_7_0
  + 1030 X_7_1 + 332 X_7_2 + 208 X_7_3 + 415 X_7_4 + 929 X_7_5 + 205 X_7_6 + 816 X_7_8 + 663 X_7_9
  + 437 X_8_0 + 650 X_8_1 + 650 X_8_2 + 759 X_8_3 + 419 X_8_4 + 165 X_8_5 + 762 X_8_6 + 816 X_8_7
  + 346 X_8_9 + 99 X_9_0 + 423 X_9_1 + 653 X_9_2 + 700 X_9_3 + 273 X_9_4 + 347 X_9_5 + 533 X_9_6
  + 663 X_9_7 + 346 X_9_8
  <= 1
 obj2:
  + 874 X_0_1 + 633 X_0_2 + 62 X_0_3 + 1036 X_0_4 + 489 X_0_5 + 944 X_0_6 + 776 X_0_7 + 656 X_0_8
  + 858 X_0_9 + 874 X_1_0 + 275 X_1_2 + 880 X_1_3 + 194 X_1_4 + 440 X_1_5 + 266 X_1_6 + 110 X_1_7
  + 734 X_1_8 + 374 X_1_9 + 633 X_2_0 + 275 X_2_1 + 629 X_2_3 + 467 X_2_4 + 316 X_2_5 + 321 X_2_6
  + 164 X_2_7 + 491 X_2_8 + 500 X_2_9 + 62 X_3_0 + 880 X_3_1 + 629 X_3_2 + 1049 X_3_4 + 516 X_3_5
  + 933 X_3_6 + 779 X_3_7 + 609 X_3_8 + 889 X_3_9 + 1036 X_4_0 + 194 X_4_1 + 467 X_4_2 + 1049 X_4_3
  + 568 X_4_5 + 399 X_4_6 + 303 X_4_7 + 925 X_4_8 + 352 X_4_9 + 489 X_5_0 + 440 X_5_1 + 316 X_5_2
  + 516 X_5_3 + 568 X_5_4 + 613 X_5_6 + 374 X_5_7 + 702 X_5_8 + 374 X_5_9 + 944 X_6_0 + 266 X_6_1
  + 321 X_6_2 + 933 X_6_3 + 399 X_6_4 + 613 X_6_5 + 253 X_6_7 + 597 X_6_8 + 639 X_6_9 + 776 X_7_0
  + 110 X_7_1 + 164 X_7_2 + 779 X_7_3 + 303 X_7_4 + 374 X_7_5 + 253 X_7_6 + 632 X_7_8 + 410 X_7_9
  + 656 X_8_0 + 734 X_8_1 + 491 X_8_2 + 609 X_8_3 + 925 X_8_4 + 702 X_8_5 + 597 X_8_6 + 632 X_8_7
  + 986 X_8_9 + 858 X_9_0 + 374 X_9_1 + 500 X_9_2 + 889 X_9_3 + 352 X_9_4 + 374 X_9_5 + 639 X_9_6
  + 410 X_9_7 + 986 X_9_8
  <= 2
 obj3:
  + 1006 X_0_1 + 739 X_0_2 + 938 X_0_3 + 928 X_0_4 + 337 X_0_5 + 714 X_0_6 + 374 X_0_7 + 393 X_0_8
  + 773 X_0_9 + 1006 X_1_0 + 302 X_1_2 + 139 X_1_3 + 86 X_1_4 + 926 X_1_5 + 913 X_1_6 + 1103 X_1_7
  + 1113 X_1_8 + 705 X_1_9 + 739 X_2_0 + 302 X_2_1 + 313 X_2_3 + 216 X_2_4 + 625 X_2_5 + 844 X_2_6
  + 908 X_2_7 + 921 X_2_8 + 686 X_2_9 + 938 X_3_0 + 139 X_3_1 + 313 X_3_2 + 151 X_3_4 + 905 X_3_5
  + 779 X_3_6 + 996 X_3_7 + 1004 X_3_8 + 567 X_3_9 + 928 X_4_0 + 86 X_4_1 + 216 X_4_2 + 151 X_4_3
  + 840 X_4_5 + 883 X_4_6 + 1042 X_4_7 + 1053 X_4_8 + 686 X_4_9 + 337 X_5_0 + 926 X_5_1 + 625 X_5_2
  + 905 X_5_3 + 840 X_5_4 + 960 X_5_6 + 702 X_5_7 + 721 X_5_8 + 948 X_5_9 + 714 X_6_0 + 913 X_6_1
  + 844 X_6_2 + 779 X_6_3 + 883 X_6_4 + 960 X_6_5 + 452 X_6_7 + 444 X_6_8 + 228 X_6_9 + 374 X_7_0
  + 1103 X_7_1 + 908 X_7_2 + 996 X_7_3 + 1042 X_7_4 + 702 X_7_5 + 452 X_7_6 + 18 X_7_8 + 608 X_7_9
  + 393 X_8_0 + 1113 X_8_1 + 921 X_8_2 + 1004 X_8_3 + 1053 X_8_4 + 721 X_8_5 + 444 X_8_6 + 18 X_8_7
  + 607 X_8_9 + 773 X_9_0 + 705 X_9_1 + 686 X_9_2 + 567 X_9_3 + 686 X_9_4 + 948 X_9_5 + 228 X_9_6
  + 608 X_9_7 + 607 X_9_8
  <= 3
 obj4:
  + 974 X_0_1 + 1008 X_0_2 + 723 X_0_3 + 479 X_0_4 + 715 X_0_5 + 344 X_0_6 + 519 X_0_7 + 203 X_0_8
  + 478 X_0_9 + 974 X_1_0 + 60 X_1_2 + 280 X_1_3 + 662 X_1_4 + 327 X_1_5 + 733 X_1_6 + 899 X_1_7
  + 991 X_1_8 + 901 X_1_9 + 1008 X_2_0 + 60 X_2_1 + 331 X_2_3 + 671 X_2_4 + 333 X_2_5 + 751 X_2_6
  + 901 X_2_7 + 1014 X_2_8 + 907 X_2_9 + 723 X_3_0 + 280 X_3_1 + 331 X_3_2 + 520 X_3_4 + 276 X_3_5
  + 544 X_3_6 + 769 X_3_7 + 775 X_3_8 + 759 X_3_9 + 479 X_4_0 + 662 X_4_1 + 671 X_4_2 + 520 X_4_3
  + 337 X_4_5 + 134 X_4_6 + 249 X_4_7 + 386 X_4_8 + 243 X_4_9 + 715 X_5_0 + 327 X_5_1 + 333 X_5_2
  + 276 X_5_3 + 337 X_5_4 + 424 X_5_6 + 572 X_5_7 + 691 X_5_8 + 575 X_5_9 + 344 X_6_0 + 733 X_6_1
  + 751 X_6_2 + 544 X_6_3 + 134 X_6_4 + 424 X_6_5 + 270 X_6_7 + 268 X_6_8 + 244 X_6_9 + 519 X_7_0
  + 899 X_7_1 + 901 X_7_2 + 769 X_7_3 + 249 X_7_4 + 572 X_7_5 + 270 X_7_6 + 340 X_7_8 + 41 X_7_9
  + 203 X_8_0 + 991 X_8_1 + 1014 X_8_2 + 775 X_8_3 + 386 X_8_4 + 691 X_8_5 + 268 X_8_6 + 340 X_8_7
  + 299 X_8_9 + 478 X_9_0 + 901 X_9_1 + 907 X_9_2 + 759 X_9_3 + 243 X_9_4 + 575 X_9_5 + 244 X_9_6
  + 41 X_9_7 + 299 X_9_8
  <= 4
 obj5:
  + 491 X_0_1 + 270 X_0_2 + 426 X_0_3 + 565 X_0_4 + 748 X_0_5 + 836 X_0_6 + 251 X_0_7 + 933 X_0_8
  + 14 X_0_9 + 491 X_1_0 + 263 X_1_2 + 252 X_1_3 + 217 X_1_4 + 577 X_1_5 + 635 X_1_6 + 643 X_1_7
  + 499 X_1_8 + 495 X_1_9 + 270 X_2_0 + 263 X_2_1 + 341 X_2_3 + 295 X_2_4 + 716 X_2_5 + 793 X_2_6
  + 488 X_2_7 + 755 X_2_8 + 278 X_2_9 + 426 X_3_0 + 252 X_3_1 + 341 X_3_2 + 461 X_3_4 + 375 X_3_5
  + 452 X_3_6 + 476 X_3_7 + 521 X_3_8 + 422 X_3_9 + 565 X_4_0 + 217 X_4_1 + 295 X_4_2 + 461 X_4_3
  + 793 X_4_5 + 849 X_4_6 + 772 X_4_7 + 639 X_4_8 + 574 X_4_9 + 748 X_5_0 + 577 X_5_1 + 716 X_5_2
  + 375 X_5_3 + 793 X_5_4 + 89 X_5_6 + 683 X_5_7 + 477 X_5_8 + 739 X_5_9 + 836 X_6_0 + 635 X_6_1
  + 793 X_6_2 + 452 X_6_3 + 849 X_6_4 + 89 X_6_5 + 772 X_6_7 + 458 X_6_8 + 827 X_6_9 + 251 X_7_0
  + 643 X_7_1 + 488 X_7_2 + 476 X_7_3 + 772 X_7_4 + 683 X_7_5 + 772 X_7_6 + 992 X_7_8 + 238 X_7_9
  + 933 X_8_0 + 499 X_8_1 + 755 X_8_2 + 521 X_8_3 + 639 X_8_4 + 477 X_8_5 + 458 X_8_6 + 992 X_8_7
  + 931 X_8_9 + 14 X_9_0 + 495 X_9_1 + 278 X_9_2 + 422 X_9_3 + 574 X_9_4 + 739 X_9_5 + 827 X_9_6
  + 238 X_9_7 + 931 X_9_8
  <= 5
 obj6:
  + 397 X_0_1 + 728 X_0_2 + 411 X_0_3 + 649 X_0_4 + 260 X_0_5 + 113 X_0_6 + 155 X_0_7 + 489 X_0_8
  + 463 X_0_9 + 397 X_1_0 + 1096 X_1_2 + 785 X_1_3 + 1028 X_1_4 + 441 X_1_5 + 454 X_1_6 + 278 X_1_7
  + 875 X_1_8 + 824 X_1_9 + 728 X_2_0 + 1096 X_2_1 + 594 X_2_3 + 98 X_2_4 + 904 X_2_5 + 644 X_2_6
  + 818 X_2_7 + 515 X_2_8 + 272 X_2_9 + 411 X_3_0 + 785 X_3_1 + 594 X_3_2 + 495 X_3_4 + 408 X_3_5
  + 434 X_3_6 + 566 X_3_7 + 108 X_3_8 + 447 X_3_9 + 649 X_4_0 + 1028 X_4_1 + 98 X_4_2 + 495 X_4_3
  + 813 X_4_5 + 574 X_4_6 + 750 X_4_7 + 418 X_4_8 + 215 X_4_9 + 260 X_5_0 + 441 X_5_1 + 904 X_5_2
  + 408 X_5_3 + 813 X_5_4 + 370 X_5_6 + 352 X_5_7 + 514 X_5_8 + 666 X_5_9 + 113 X_6_0 + 454 X_6_1
  + 644 X_6_2 + 434 X_6_3 + 574 X_6_4 + 370 X_6_5 + 177 X_6_7 + 491 X_6_8 + 374 X_6_9 + 155 X_7_0
  + 278 X_7_1 + 818 X_7_2 + 566 X_7_3 + 750 X_7_4 + 352 X_7_5 + 177 X_7_6 + 640 X_7_8 + 546 X_7_9
  + 489 X_8_0 + 875 X_8_1 + 515 X_8_2 + 108 X_8_3 + 418 X_8_4 + 514 X_8_5 + 491 X_8_6 + 640 X_8_7
  + 415 X_8_9 + 463 X_9_0 + 824 X_9_1 + 272 X_9_2 + 447 X_9_3 + 215 X_9_4 + 666 X_9_5 + 374 X_9_6
  + 546 X_9_7 + 415 X_9_8
  <= 6
 obj7:
  + 229 X_0_1 + 124 X_0_2 + 700 X_0_3 + 445 X_0_4 + 20 X_0_5 + 945 X_0_6 + 318 X_0_7 + 1072 X_0_8
  + 694 X_0_9 + 229 X_1_0 + 346 X_1_2 + 775 X_1_3 + 309 X_1_4 + 250 X_1_5 + 921 X_1_6 + 221 X_1_7
  + 1023 X_1_8 + 835 X_1_9 + 124 X_2_0 + 346 X_2_1 + 635 X_2_3 + 508 X_2_4 + 105 X_2_5 + 926 X_2_6
  + 381 X_2_7 + 1065 X_2_8 + 595 X_2_9 + 700 X_3_0 + 775 X_3_1 + 635 X_3_2 + 611 X_3_4 + 694 X_3_5
  + 410 X_3_6 + 587 X_3_7 + 571 X_3_8 + 242 X_3_9 + 445 X_4_0 + 309 X_4_1 + 508 X_4_2 + 611 X_4_3
  + 459 X_4_5 + 643 X_4_6 + 128 X_4_7 + 726 X_4_8 + 755 X_4_9 + 20 X_5_0 + 250 X_5_1 + 105 X_5_2
  + 694 X_5_3 + 459 X_5_4 + 947 X_5_6 + 332 X_5_7 + 1077 X_5_8 + 682 X_5_9 + 945 X_6_0 + 921 X_6_1
  + 926 X_6_2 + 410 X_6_3 + 643 X_6_4 + 947 X_6_5 + 699 X_6_7 + 161 X_6_8 + 649 X_6_9 + 318 X_7_0
  + 221 X_7_1 + 381 X_7_2 + 587 X_7_3 + 128 X_7_4 + 332 X_7_5 + 699 X_7_6 + 803 X_7_8 + 693 X_7_9
  + 1072 X_8_0 + 1023 X_8_1 + 1065 X_8_2 + 571 X_8_3 + 726 X_8_4 + 1077 X_8_5 + 161 X_8_6 + 803 X_8_7
  + 809 X_8_9 + 694 X_9_0 + 835 X_9_1 + 595 X_9_2 + 242 X_9_3 + 755 X_9_4 + 682 X_9_5 + 649 X_9_6
  + 693 X_9_7 + 809 X_9_8
  <= 7
Bounds
 1 <= U1 <= 9
 1 <= U2 <= 9
 1 <= U3 <= 9
 1 <= U4 <= 9
 1 <= U5 <= 9
 1 <= U6 <= 9
 1 <= U7 <= 9
 1 <= U8 <= 9
 1 <= U9 <= 9
Binary
 X_0_1
 X_0_2
 X_0_3
 X_0_4
 X_0_5
 X_0_6
 X_0_7
 X_0_8
 X_0_9
 X_1_0
 X_1_2
 X_1_3
 X_1_4
 X_1_5
 X_1_6
 X_1_7
 X_1_8
 X_1_9
 X_2_0
 X_2_1
 X_2_3
 X_2_4
 X_2_5
 X_2_6
 X_2_7
 X_2_8
 X_2_9
 X_3_0
 X_3_1
 X_3_2
 X_3_4
 X_3_5
 X_3_6
 X_3_7
 X_3_8
 X_3_9
 X_4_0
 X_4_1
 X_4_2
 X_4_3
 X_4_5
 X_4_6
 X_4_7
 X_4_8
 X_4_9
 X_5_0
 X_5_1
 X_5_2
 X_5_3
 X_5_4
 X_5_6
 X_5_7
 X_5_8
 X_5_9
 X_6_0
 X_6_1
 X_6_2
 X_6_3
 X_6_4
 X_6_5
 X_6_7
 X_6_8
 X_6_9
 X_7_0
 X_7_1
 X_7_2
 X_7_3
 X_7_4
 X_7_5
 X_7_6
 X_7_8
 X_7_9
 X_8_0
 X_8_1
 X_8_2
 X_8_3
 X_8_4
 X_8_5
 X_8_6
 X_8_7
 X_8_9
 X_9_0
 X_9_1
 X_9_2
 X_9_3
 X_9_4
 X_9_5
 X_9_6
 X_9_7
 X_9_8
End
